; Copyright (c) 2026 The RIINA Authors. All rights reserved.
; Auto-generated from 02_FORMAL/coq/domains/SingaporePDPA.v (67 validations)
; Generated by scripts/generate-full-stack.py
;
; Translation Validation for SingaporePDPA
; Layer 9: Verifies compiler backend preserves formal semantics.
; Each assertion checks source IR ≡ target code for a proven property.

(set-logic QF_LIA)
(set-option :produce-models true)

; IR node representation
(declare-sort IRNode 0)
(declare-sort TargetNode 0)

; sg_has_consent: source semantics (matches Coq)
(declare-fun source_sg_has_consent () Bool)
(declare-fun target_sg_has_consent () Bool)
(assert (= source_sg_has_consent target_sg_has_consent))

; sg_consent_for_category: source semantics (matches Coq)
(declare-fun source_sg_consent_for_category () Bool)
(declare-fun target_sg_consent_for_category () Bool)
(assert (= source_sg_consent_for_category target_sg_consent_for_category))

; sg_purpose_limited: source semantics (matches Coq)
(declare-fun source_sg_purpose_limited () Bool)
(declare-fun target_sg_purpose_limited () Bool)
(assert (= source_sg_purpose_limited target_sg_purpose_limited))

; sg_protection_adequate: source semantics (matches Coq)
(declare-fun source_sg_protection_adequate () Bool)
(declare-fun target_sg_protection_adequate () Bool)
(assert (= source_sg_protection_adequate target_sg_protection_adequate))

; sg_within_retention: source semantics (matches Coq)
(declare-fun source_sg_within_retention () Bool)
(declare-fun target_sg_within_retention () Bool)
(assert (= source_sg_within_retention target_sg_within_retention))

; sg_must_dispose: source semantics (matches Coq)
(declare-fun source_sg_must_dispose () Bool)
(declare-fun target_sg_must_dispose () Bool)
(assert (= source_sg_must_dispose target_sg_must_dispose))

; sg_transfer_lawful: source semantics (matches Coq)
(declare-fun source_sg_transfer_lawful () Bool)
(declare-fun target_sg_transfer_lawful () Bool)
(assert (= source_sg_transfer_lawful target_sg_transfer_lawful))

; sg_breach_notifiable: source semantics (matches Coq)
(declare-fun source_sg_breach_notifiable () Bool)
(declare-fun target_sg_breach_notifiable () Bool)
(assert (= source_sg_breach_notifiable target_sg_breach_notifiable))

; sg_pdpc_notified_in_time: source semantics (matches Coq)
(declare-fun source_sg_pdpc_notified_in_time () Bool)
(declare-fun target_sg_pdpc_notified_in_time () Bool)
(assert (= source_sg_pdpc_notified_in_time target_sg_pdpc_notified_in_time))

; sg_pdpa_fully_compliant: source semantics (matches Coq)
(declare-fun source_sg_pdpa_fully_compliant () Bool)
(declare-fun target_sg_pdpa_fully_compliant () Bool)
(assert (= source_sg_pdpa_fully_compliant target_sg_pdpa_fully_compliant))

; sg_purpose_violation: source semantics (matches Coq)
(declare-fun source_sg_purpose_violation () Bool)
(declare-fun target_sg_purpose_violation () Bool)
(assert (= source_sg_purpose_violation target_sg_purpose_violation))

; notification_obligation_met: source semantics (matches Coq)
(declare-fun source_notification_obligation_met () Bool)
(declare-fun target_notification_obligation_met () Bool)
(assert (= source_notification_obligation_met target_notification_obligation_met))

; sg_access_correction_deadline: source semantics (matches Coq)
(declare-fun source_sg_access_correction_deadline () Bool)
(declare-fun target_sg_access_correction_deadline () Bool)
(assert (= source_sg_access_correction_deadline target_sg_access_correction_deadline))

; access_correction_fulfilled: source semantics (matches Coq)
(declare-fun source_access_correction_fulfilled () Bool)
(declare-fun target_access_correction_fulfilled () Bool)
(assert (= source_access_correction_fulfilled target_access_correction_fulfilled))

; sg_dpo_appointed: source semantics (matches Coq)
(declare-fun source_sg_dpo_appointed () Bool)
(declare-fun target_sg_dpo_appointed () Bool)
(assert (= source_sg_dpo_appointed target_sg_dpo_appointed))

; dnc_checked: source semantics (matches Coq)
(declare-fun source_dnc_checked () Bool)
(declare-fun target_dnc_checked () Bool)
(assert (= source_dnc_checked target_dnc_checked))

; business_improvement_applicable: source semantics (matches Coq)
(declare-fun source_business_improvement_applicable () Bool)
(declare-fun target_business_improvement_applicable () Bool)
(assert (= source_business_improvement_applicable target_business_improvement_applicable))

; accountability_documented: source semantics (matches Coq)
(declare-fun source_accountability_documented () Bool)
(declare-fun target_accountability_documented () Bool)
(assert (= source_accountability_documented target_accountability_documented))

; sg_data_anonymized_excluded: source semantics (matches Coq)
(declare-fun source_sg_data_anonymized_excluded () Bool)
(declare-fun target_sg_data_anonymized_excluded () Bool)
(assert (= source_sg_data_anonymized_excluded target_sg_data_anonymized_excluded))

; sg_notified_purposes: source semantics (matches Coq)
(declare-fun source_sg_notified_purposes () Bool)
(declare-fun target_sg_notified_purposes () Bool)
(assert (= source_sg_notified_purposes target_sg_notified_purposes))

; accuracy_maintained: source semantics (matches Coq)
(declare-fun source_accuracy_maintained () Bool)
(declare-fun target_accuracy_maintained () Bool)
(assert (= source_accuracy_maintained target_accuracy_maintained))

; sg_dnc_compliant_marketing: source semantics (matches Coq)
(declare-fun source_sg_dnc_compliant_marketing () Bool)
(declare-fun target_sg_dnc_compliant_marketing () Bool)
(assert (= source_sg_dnc_compliant_marketing target_sg_dnc_compliant_marketing))

; sg_portability_deadline: source semantics (matches Coq)
(declare-fun source_sg_portability_deadline () Bool)
(declare-fun target_sg_portability_deadline () Bool)
(assert (= source_sg_portability_deadline target_sg_portability_deadline))

; portability_fulfilled: source semantics (matches Coq)
(declare-fun source_portability_fulfilled () Bool)
(declare-fun target_portability_fulfilled () Bool)
(assert (= source_portability_fulfilled target_portability_fulfilled))

; pdpc_penalty_within_cap: source semantics (matches Coq)
(declare-fun source_pdpc_penalty_within_cap () Bool)
(declare-fun target_pdpc_penalty_within_cap () Bool)
(assert (= source_pdpc_penalty_within_cap target_pdpc_penalty_within_cap))

; pdpc_penalty_proportionate: source semantics (matches Coq)
(declare-fun source_pdpc_penalty_proportionate () Bool)
(declare-fun target_pdpc_penalty_proportionate () Bool)
(assert (= source_pdpc_penalty_proportionate target_pdpc_penalty_proportionate))

; sg_cross_border_lawful: source semantics (matches Coq)
(declare-fun source_sg_cross_border_lawful () Bool)
(declare-fun target_sg_cross_border_lawful () Bool)
(assert (= source_sg_cross_border_lawful target_sg_cross_border_lawful))

; sg_individual_notification_required: source semantics (matches Coq)
(declare-fun source_sg_individual_notification_required () Bool)
(declare-fun target_sg_individual_notification_required () Bool)
(assert (= source_sg_individual_notification_required target_sg_individual_notification_required))

; sg_dpo_fully_qualified: source semantics (matches Coq)
(declare-fun source_sg_dpo_fully_qualified () Bool)
(declare-fun target_sg_dpo_fully_qualified () Bool)
(assert (= source_sg_dpo_fully_qualified target_sg_dpo_fully_qualified))

; sg_pdpa_enterprise_compliant: source semantics (matches Coq)
(declare-fun source_sg_pdpa_enterprise_compliant () Bool)
(declare-fun target_sg_pdpa_enterprise_compliant () Bool)
(assert (= source_sg_pdpa_enterprise_compliant target_sg_pdpa_enterprise_compliant))

; sg_processing_halted_on_withdrawal: source semantics (matches Coq)
(declare-fun source_sg_processing_halted_on_withdrawal () Bool)
(declare-fun target_sg_processing_halted_on_withdrawal () Bool)
(assert (= source_sg_processing_halted_on_withdrawal target_sg_processing_halted_on_withdrawal))

; obligation_1_consent: translation preserves property (matches Coq: Theorem)
(declare-fun source_obligation_1_consent () Bool)
(declare-fun target_obligation_1_consent () Bool)
(assert (= source_obligation_1_consent target_obligation_1_consent))

; obligation_1_business_exempt: translation preserves property (matches Coq: Theorem)
(declare-fun source_obligation_1_business_exempt () Bool)
(declare-fun target_obligation_1_business_exempt () Bool)
(assert (= source_obligation_1_business_exempt target_obligation_1_business_exempt))

; consent_withdrawal_effect: translation preserves property (matches Coq: Theorem)
(declare-fun source_consent_withdrawal_effect () Bool)
(declare-fun target_consent_withdrawal_effect () Bool)
(assert (= source_consent_withdrawal_effect target_consent_withdrawal_effect))

; obligation_2_purpose: translation preserves property (matches Coq: Theorem)
(declare-fun source_obligation_2_purpose () Bool)
(declare-fun target_obligation_2_purpose () Bool)
(assert (= source_obligation_2_purpose target_obligation_2_purpose))

; obligation_6_encrypted: translation preserves property (matches Coq: Theorem)
(declare-fun source_obligation_6_encrypted () Bool)
(declare-fun target_obligation_6_encrypted () Bool)
(assert (= source_obligation_6_encrypted target_obligation_6_encrypted))

; obligation_6_anonymized: translation preserves property (matches Coq: Theorem)
(declare-fun source_obligation_6_anonymized () Bool)
(declare-fun target_obligation_6_anonymized () Bool)
(assert (= source_obligation_6_anonymized target_obligation_6_anonymized))

; obligation_7_retention: translation preserves property (matches Coq: Theorem)
(declare-fun source_obligation_7_retention () Bool)
(declare-fun target_obligation_7_retention () Bool)
(assert (= source_obligation_7_retention target_obligation_7_retention))

; obligation_8_adequate: translation preserves property (matches Coq: Theorem)
(declare-fun source_obligation_8_adequate () Bool)
(declare-fun target_obligation_8_adequate () Bool)
(assert (= source_obligation_8_adequate target_obligation_8_adequate))

; obligation_8_contractual: translation preserves property (matches Coq: Theorem)
(declare-fun source_obligation_8_contractual () Bool)
(declare-fun target_obligation_8_contractual () Bool)
(assert (= source_obligation_8_contractual target_obligation_8_contractual))

; obligation_8_no_safeguards_blocked: translation preserves property (matches Coq: Theorem)
(declare-fun source_obligation_8_no_safeguards_blocked () Bool)
(declare-fun target_obligation_8_no_safeguards_blocked () Bool)
(assert (= source_obligation_8_no_safeguards_blocked target_obligation_8_no_safeguards_blocked))

; obligation_9_notification: translation preserves property (matches Coq: Theorem)
(declare-fun source_obligation_9_notification () Bool)
(declare-fun target_obligation_9_notification () Bool)
(assert (= source_obligation_9_notification target_obligation_9_notification))

; sg_pdpa_composition: translation preserves property (matches Coq: Theorem)
(declare-fun source_sg_pdpa_composition () Bool)
(declare-fun target_sg_pdpa_composition () Bool)
(assert (= source_sg_pdpa_composition target_sg_pdpa_composition))

; purpose_limitation_enforced: translation preserves property (matches Coq: Theorem)
(declare-fun source_purpose_limitation_enforced () Bool)
(declare-fun target_purpose_limitation_enforced () Bool)
(assert (= source_purpose_limitation_enforced target_purpose_limitation_enforced))

; purpose_match_no_violation: translation preserves property (matches Coq: Theorem)
(declare-fun source_purpose_match_no_violation () Bool)
(declare-fun target_purpose_match_no_violation () Bool)
(assert (= source_purpose_match_no_violation target_purpose_match_no_violation))

; notification_obligation_valid: translation preserves property (matches Coq: Theorem)
(declare-fun source_notification_obligation_valid () Bool)
(declare-fun target_notification_obligation_valid () Bool)
(assert (= source_notification_obligation_valid target_notification_obligation_valid))

; access_correction_right: translation preserves property (matches Coq: Theorem)
(declare-fun source_access_correction_right () Bool)
(declare-fun target_access_correction_right () Bool)
(assert (= source_access_correction_right target_access_correction_right))

; correction_within_deadline: translation preserves property (matches Coq: Theorem)
(declare-fun source_correction_within_deadline () Bool)
(declare-fun target_correction_within_deadline () Bool)
(assert (= source_correction_within_deadline target_correction_within_deadline))

; transfer_limitation_satisfied: translation preserves property (matches Coq: Theorem)
(declare-fun source_transfer_limitation_satisfied () Bool)
(declare-fun target_transfer_limitation_satisfied () Bool)
(assert (= source_transfer_limitation_satisfied target_transfer_limitation_satisfied))

; data_protection_officer_appointed: translation preserves property (matches Coq: Theorem)
(declare-fun source_data_protection_officer_appointed () Bool)
(declare-fun target_data_protection_officer_appointed () Bool)
(assert (= source_data_protection_officer_appointed target_data_protection_officer_appointed))

; do_not_call_registry_checked: translation preserves property (matches Coq: Theorem)
(declare-fun source_do_not_call_registry_checked () Bool)
(declare-fun target_do_not_call_registry_checked () Bool)
(assert (= source_do_not_call_registry_checked target_do_not_call_registry_checked))

; dnc_not_registered_allows: translation preserves property (matches Coq: Theorem)
(declare-fun source_dnc_not_registered_allows () Bool)
(declare-fun target_dnc_not_registered_allows () Bool)
(assert (= source_dnc_not_registered_allows target_dnc_not_registered_allows))

; breach_notification_72_hours: translation preserves property (matches Coq: Theorem)
(declare-fun source_breach_notification_72_hours () Bool)
(declare-fun target_breach_notification_72_hours () Bool)
(assert (= source_breach_notification_72_hours target_breach_notification_72_hours))

; breach_not_notifiable_threshold: translation preserves property (matches Coq: Theorem)
(declare-fun source_breach_not_notifiable_threshold () Bool)
(declare-fun target_breach_not_notifiable_threshold () Bool)
(assert (= source_breach_not_notifiable_threshold target_breach_not_notifiable_threshold))

; deemed_consent_valid: translation preserves property (matches Coq: Theorem)
(declare-fun source_deemed_consent_valid () Bool)
(declare-fun target_deemed_consent_valid () Bool)
(assert (= source_deemed_consent_valid target_deemed_consent_valid))

; deemed_consent_notification_valid: translation preserves property (matches Coq: Theorem)
(declare-fun source_deemed_consent_notification_valid () Bool)
(declare-fun target_deemed_consent_notification_valid () Bool)
(assert (= source_deemed_consent_notification_valid target_deemed_consent_notification_valid))

; business_improvement_exception: translation preserves property (matches Coq: Theorem)
(declare-fun source_business_improvement_exception () Bool)
(declare-fun target_business_improvement_exception () Bool)
(assert (= source_business_improvement_exception target_business_improvement_exception))

; accountability_complete: translation preserves property (matches Coq: Theorem)
(declare-fun source_accountability_complete () Bool)
(declare-fun target_accountability_complete () Bool)
(assert (= source_accountability_complete target_accountability_complete))

; data_anonymization_excludes: translation preserves property (matches Coq: Theorem)
(declare-fun source_data_anonymization_excludes () Bool)
(declare-fun target_data_anonymization_excludes () Bool)
(assert (= source_data_anonymization_excludes target_data_anonymization_excludes))

; sg_consent_coverage: translation preserves property (matches Coq: Theorem)
(declare-fun source_sg_consent_coverage () Bool)
(declare-fun target_sg_consent_coverage () Bool)
(assert (= source_sg_consent_coverage target_sg_consent_coverage))

; sg_data_category_coverage: translation preserves property (matches Coq: Theorem)
(declare-fun source_sg_data_category_coverage () Bool)
(declare-fun target_sg_data_category_coverage () Bool)
(assert (= source_sg_data_category_coverage target_sg_data_category_coverage))

; transfer_adequacy_coverage: translation preserves property (matches Coq: Theorem)
(declare-fun source_transfer_adequacy_coverage () Bool)
(declare-fun target_transfer_adequacy_coverage () Bool)
(assert (= source_transfer_adequacy_coverage target_transfer_adequacy_coverage))

; notification_purposes_nonempty: translation preserves property (matches Coq: Theorem)
(declare-fun source_notification_purposes_nonempty () Bool)
(declare-fun target_notification_purposes_nonempty () Bool)
(assert (= source_notification_purposes_nonempty target_notification_purposes_nonempty))

; notification_first_purpose_notified: translation preserves property (matches Coq: Theorem)
(declare-fun source_notification_first_purpose_notified () Bool)
(declare-fun target_notification_first_purpose_notified () Bool)
(assert (= source_notification_first_purpose_notified target_notification_first_purpose_notified))

; access_deadline_monotone: translation preserves property (matches Coq: Theorem)
(declare-fun source_access_deadline_monotone () Bool)
(declare-fun target_access_deadline_monotone () Bool)
(assert (= source_access_deadline_monotone target_access_deadline_monotone))

; access_request_immediate_response: translation preserves property (matches Coq: Theorem)
(declare-fun source_access_request_immediate_response () Bool)
(declare-fun target_access_request_immediate_response () Bool)
(assert (= source_access_request_immediate_response target_access_request_immediate_response))

; accuracy_within_interval: translation preserves property (matches Coq: Theorem)
(declare-fun source_accuracy_within_interval () Bool)
(declare-fun target_accuracy_within_interval () Bool)
(assert (= source_accuracy_within_interval target_accuracy_within_interval))

; accuracy_stale_requires_reverification: translation preserves property (matches Coq: Theorem)
(declare-fun source_accuracy_stale_requires_reverification () Bool)
(declare-fun target_accuracy_stale_requires_reverification () Bool)
(assert (= source_accuracy_stale_requires_reverification target_accuracy_stale_requires_reverification))

; dnc_registered_blocks_all_marketing_types: translation preserves property (matches Coq: Theorem)
(declare-fun source_dnc_registered_blocks_all_marketing_types () Bool)
(declare-fun target_dnc_registered_blocks_all_marketing_types () Bool)
(assert (= source_dnc_registered_blocks_all_marketing_types target_dnc_registered_blocks_all_marketing_types))

; dnc_exempt_allows_marketing: translation preserves property (matches Coq: Theorem)
(declare-fun source_dnc_exempt_allows_marketing () Bool)
(declare-fun target_dnc_exempt_allows_marketing () Bool)
(assert (= source_dnc_exempt_allows_marketing target_dnc_exempt_allows_marketing))

; dnc_status_decidable: translation preserves property (matches Coq: Theorem)
(declare-fun source_dnc_status_decidable () Bool)
(declare-fun target_dnc_status_decidable () Bool)
(assert (= source_dnc_status_decidable target_dnc_status_decidable))

; portability_obligation_met: translation preserves property (matches Coq: Theorem)
(declare-fun source_portability_obligation_met () Bool)
(declare-fun target_portability_obligation_met () Bool)
(assert (= source_portability_obligation_met target_portability_obligation_met))

; portability_late_response_violation: translation preserves property (matches Coq: Theorem)
(declare-fun source_portability_late_response_violation () Bool)
(declare-fun target_portability_late_response_violation () Bool)
(assert (= source_portability_late_response_violation target_portability_late_response_violation))

; portability_requires_standard_format: translation preserves property (matches Coq: Theorem)
(declare-fun source_portability_requires_standard_format () Bool)
(declare-fun target_portability_requires_standard_format () Bool)
(assert (= source_portability_requires_standard_format target_portability_requires_standard_format))

; pdpc_penalty_cap_respected: translation preserves property (matches Coq: Theorem)
(declare-fun source_pdpc_penalty_cap_respected () Bool)
(declare-fun target_pdpc_penalty_cap_respected () Bool)
(assert (= source_pdpc_penalty_cap_respected target_pdpc_penalty_cap_respected))

; pdpc_minor_breach_no_fine: translation preserves property (matches Coq: Theorem)
(declare-fun source_pdpc_minor_breach_no_fine () Bool)
(declare-fun target_pdpc_minor_breach_no_fine () Bool)
(assert (= source_pdpc_minor_breach_no_fine target_pdpc_minor_breach_no_fine))

; pdpc_moderate_breach_half_cap: translation preserves property (matches Coq: Theorem)
(declare-fun source_pdpc_moderate_breach_half_cap () Bool)
(declare-fun target_pdpc_moderate_breach_half_cap () Bool)
(assert (= source_pdpc_moderate_breach_half_cap target_pdpc_moderate_breach_half_cap))

; pdpc_severe_breach_full_cap: translation preserves property (matches Coq: Theorem)
(declare-fun source_pdpc_severe_breach_full_cap () Bool)
(declare-fun target_pdpc_severe_breach_full_cap () Bool)
(assert (= source_pdpc_severe_breach_full_cap target_pdpc_severe_breach_full_cap))

; consent_explicit_always_valid: translation preserves property (matches Coq: Theorem)
(declare-fun source_consent_explicit_always_valid () Bool)
(declare-fun target_consent_explicit_always_valid () Bool)
(assert (= source_consent_explicit_always_valid target_consent_explicit_always_valid))

; no_consent_personal_data_violation: translation preserves property (matches Coq: Theorem)
(declare-fun source_no_consent_personal_data_violation () Bool)
(declare-fun target_no_consent_personal_data_violation () Bool)
(assert (= source_no_consent_personal_data_violation target_no_consent_personal_data_violation))

; public_data_no_consent_needed: translation preserves property (matches Coq: Theorem)
(declare-fun source_public_data_no_consent_needed () Bool)
(declare-fun target_public_data_no_consent_needed () Bool)
(assert (= source_public_data_no_consent_needed target_public_data_no_consent_needed))

; retention_within_implies_not_dispose: translation preserves property (matches Coq: Theorem)
(declare-fun source_retention_within_implies_not_dispose () Bool)
(declare-fun target_retention_within_implies_not_dispose () Bool)
(assert (= source_retention_within_implies_not_dispose target_retention_within_implies_not_dispose))

; retention_dispose_exclusive: translation preserves property (matches Coq: Theorem)
(declare-fun source_retention_dispose_exclusive () Bool)
(declare-fun target_retention_dispose_exclusive () Bool)
(assert (= source_retention_dispose_exclusive target_retention_dispose_exclusive))

; retention_at_limit_valid: translation preserves property (matches Coq: Theorem)
(declare-fun source_retention_at_limit_valid () Bool)
(declare-fun target_retention_at_limit_valid () Bool)
(assert (= source_retention_at_limit_valid target_retention_at_limit_valid))

; retention_past_limit_dispose: translation preserves property (matches Coq: Theorem)
(declare-fun source_retention_past_limit_dispose () Bool)
(declare-fun target_retention_past_limit_dispose () Bool)
(assert (= source_retention_past_limit_dispose target_retention_past_limit_dispose))

; cross_border_composition: translation preserves property (matches Coq: Theorem)
(declare-fun source_cross_border_composition () Bool)
(declare-fun target_cross_border_composition () Bool)
(assert (= source_cross_border_composition target_cross_border_composition))

; cross_border_no_safeguards_fails: translation preserves property (matches Coq: Theorem)
(declare-fun source_cross_border_no_safeguards_fails () Bool)
(declare-fun target_cross_border_no_safeguards_fails () Bool)
(assert (= source_cross_border_no_safeguards_fails target_cross_border_no_safeguards_fails))

; individual_notification_harm_assessment: translation preserves property (matches Coq: Theorem)
(declare-fun source_individual_notification_harm_assessment () Bool)
(declare-fun target_individual_notification_harm_assessment () Bool)
(assert (= source_individual_notification_harm_assessment target_individual_notification_harm_assessment))

; no_harm_no_individual_notification: translation preserves property (matches Coq: Theorem)
(declare-fun source_no_harm_no_individual_notification () Bool)
(declare-fun target_no_harm_no_individual_notification () Bool)
(assert (= source_no_harm_no_individual_notification target_no_harm_no_individual_notification))

; breach_500_is_notifiable: translation preserves property (matches Coq: Theorem)
(declare-fun source_breach_500_is_notifiable () Bool)
(declare-fun target_breach_500_is_notifiable () Bool)
(assert (= source_breach_500_is_notifiable target_breach_500_is_notifiable))

; breach_harm_is_notifiable: translation preserves property (matches Coq: Theorem)
(declare-fun source_breach_harm_is_notifiable () Bool)
(declare-fun target_breach_harm_is_notifiable () Bool)
(assert (= source_breach_harm_is_notifiable target_breach_harm_is_notifiable))

; dpo_qualified_implies_appointed: translation preserves property (matches Coq: Theorem)
(declare-fun source_dpo_qualified_implies_appointed () Bool)
(declare-fun target_dpo_qualified_implies_appointed () Bool)
(assert (= source_dpo_qualified_implies_appointed target_dpo_qualified_implies_appointed))

; dpo_not_trained_not_qualified: translation preserves property (matches Coq: Theorem)
(declare-fun source_dpo_not_trained_not_qualified () Bool)
(declare-fun target_dpo_not_trained_not_qualified () Bool)
(assert (= source_dpo_not_trained_not_qualified target_dpo_not_trained_not_qualified))

; enterprise_compliance_composition: translation preserves property (matches Coq: Theorem)
(declare-fun source_enterprise_compliance_composition () Bool)
(declare-fun target_enterprise_compliance_composition () Bool)
(assert (= source_enterprise_compliance_composition target_enterprise_compliance_composition))

; processing_basis_coverage: translation preserves property (matches Coq: Theorem)
(declare-fun source_processing_basis_coverage () Bool)
(declare-fun target_processing_basis_coverage () Bool)
(assert (= source_processing_basis_coverage target_processing_basis_coverage))

; pdpc_direction_coverage: translation preserves property (matches Coq: Theorem)
(declare-fun source_pdpc_direction_coverage () Bool)
(declare-fun target_pdpc_direction_coverage () Bool)
(assert (= source_pdpc_direction_coverage target_pdpc_direction_coverage))

; withdrawal_halts_processing: translation preserves property (matches Coq: Theorem)
(declare-fun source_withdrawal_halts_processing () Bool)
(declare-fun target_withdrawal_halts_processing () Bool)
(assert (= source_withdrawal_halts_processing target_withdrawal_halts_processing))

; active_processing_implies_consent: translation preserves property (matches Coq: Theorem)
(declare-fun source_active_processing_implies_consent () Bool)
(declare-fun target_active_processing_implies_consent () Bool)
(assert (= source_active_processing_implies_consent target_active_processing_implies_consent))

; Verify all translation validations are satisfiable
(check-sat)
(exit)
